
Gurobi 9.1.2 (win64, Java) logging started Tue Nov  9 15:36:31 2021

Academic license - for non-commercial use only - expires 2022-10-30
Gurobi Optimizer version 9.1.2 build v9.1.2rc0 (win64)
Thread count: 6 physical cores, 12 logical processors, using up to 12 threads
Optimize a model with 450 rows, 45000 columns and 90000 nonzeros
Model fingerprint: 0x385927a6
Variable types: 0 continuous, 45000 integer (45000 binary)
Coefficient statistics:
  Matrix range     [1e+00, 1e+03]
  Objective range  [5e+00, 1e+03]
  Bounds range     [1e+00, 1e+00]
  RHS range        [1e+00, 1e+03]
Found heuristic solution: objective 89689.000000
Presolve removed 117 rows and 22660 columns
Presolve time: 0.61s
Presolved: 333 rows, 22340 columns, 44631 nonzeros
Found heuristic solution: objective 90175.000000
Variable types: 0 continuous, 22340 integer (22340 binary)
Presolve removed 0 rows and 46 columns
Presolved: 333 rows, 22294 columns, 44585 nonzeros


Root relaxation: objective 9.192623e+04, 539 iterations, 0.02 seconds

    Nodes    |    Current Node    |     Objective Bounds      |     Work
 Expl Unexpl |  Obj  Depth IntInf | Incumbent    BestBd   Gap | It/Node Time

     0     0 91926.2345    0    1 90175.0000 91926.2345  1.94%     -    0s
H    0     0                    91556.000000 91926.2345  0.40%     -    0s
H    0     0                    91585.000000 91926.2345  0.37%     -    0s

Cutting planes:
  Cover: 1
  MIR: 1
  StrongCG: 1
  RLT: 1

Explored 1 nodes (3941 simplex iterations) in 0.90 seconds
Thread count was 12 (of 12 available processors)

Solution count 4: 91585 91556 90175 89689 

Optimal solution found (tolerance 1.00e-04)
Best objective 9.158500000000e+04, best bound 9.158500000000e+04, gap 0.0000%

Gurobi 9.1.2 (win64, Java) logging started Tue Nov  9 15:37:01 2021

Academic license - for non-commercial use only - expires 2022-10-30
Gurobi Optimizer version 9.1.2 build v9.1.2rc0 (win64)
Thread count: 6 physical cores, 12 logical processors, using up to 12 threads
Optimize a model with 450 rows, 45000 columns and 90000 nonzeros
Model fingerprint: 0x385927a6
Variable types: 0 continuous, 45000 integer (45000 binary)
Coefficient statistics:
  Matrix range     [1e+00, 1e+03]
  Objective range  [5e+00, 1e+03]
  Bounds range     [1e+00, 1e+00]
  RHS range        [1e+00, 1e+03]
Found heuristic solution: objective 89689.000000
Presolve removed 117 rows and 22660 columns
Presolve time: 0.60s
Presolved: 333 rows, 22340 columns, 44631 nonzeros
Found heuristic solution: objective 90175.000000
Variable types: 0 continuous, 22340 integer (22340 binary)
Presolve removed 0 rows and 46 columns
Presolved: 333 rows, 22294 columns, 44585 nonzeros


Root relaxation: objective 9.192623e+04, 539 iterations, 0.02 seconds

    Nodes    |    Current Node    |     Objective Bounds      |     Work
 Expl Unexpl |  Obj  Depth IntInf | Incumbent    BestBd   Gap | It/Node Time

     0     0 91926.2345    0    1 90175.0000 91926.2345  1.94%     -    0s
H    0     0                    91556.000000 91926.2345  0.40%     -    0s
H    0     0                    91585.000000 91926.2345  0.37%     -    0s

Cutting planes:
  Cover: 1
  MIR: 1
  StrongCG: 1
  RLT: 1

Explored 1 nodes (3941 simplex iterations) in 0.87 seconds
Thread count was 12 (of 12 available processors)

Solution count 4: 91585 91556 90175 89689 

Optimal solution found (tolerance 1.00e-04)
Best objective 9.158500000000e+04, best bound 9.158500000000e+04, gap 0.0000%
